NAME          
ROWS
 N  OBJ
 L  c1
 L  c2
 L  c3
 L  c4
COLUMNS
    MARKER    'MARKER'                 'INTORG'
    x[1]      c1        29
    x[1]      c2        194
    x[1]      c3        793
    x[1]      c4        963
    x[1]      OBJ       -49
    x[2]      c1        747
    x[2]      c2        704
    x[2]      c3        729
    x[2]      c4        847
    x[2]      OBJ       -443
    x[3]      c1        484
    x[3]      c2        452
    x[3]      c3        362
    x[3]      c4        751
    x[3]      OBJ       -590
    x[4]      c1        649
    x[4]      c2        156
    x[4]      c3        672
    x[4]      c4        391
    x[4]      OBJ       -588
    x[5]      c1        553
    x[5]      c2        29
    x[5]      c3        194
    x[5]      c4        237
    x[5]      OBJ       -295
    x[6]      c1        487
    x[6]      c2        6
    x[6]      c3        446
    x[6]      c4        323
    x[6]      OBJ       -349
    x[7]      c1        210
    x[7]      c2        399
    x[7]      c3        884
    x[7]      c4        294
    x[7]      OBJ       -713
    x[8]      c1        67
    x[8]      c2        912
    x[8]      c3        257
    x[8]      c4        750
    x[8]      OBJ       -940
    x[9]      c1        501
    x[9]      c2        802
    x[9]      c3        313
    x[9]      c4        106
    x[9]      OBJ       -699
    x[10]     c1        832
    x[10]     c2        971
    x[10]     c3        506
    x[10]     c4        999
    x[10]     OBJ       -126
    x[11]     c1        859
    x[11]     c2        720
    x[11]     c3        320
    x[11]     c4        195
    x[11]     OBJ       -394
    x[12]     c1        656
    x[12]     c2        253
    x[12]     c3        840
    x[12]     c4        764
    x[12]     OBJ       -722
    x[13]     c1        292
    x[13]     c2        499
    x[13]     c3        77
    x[13]     c4        360
    x[13]     OBJ       -676
    x[14]     c1        309
    x[14]     c2        251
    x[14]     c3        779
    x[14]     c4        707
    x[14]     OBJ       -538
    x[15]     c1        132
    x[15]     c2        825
    x[15]     c3        42
    x[15]     c4        730
    x[15]     OBJ       -898
    x[16]     c1        673
    x[16]     c2        150
    x[16]     c3        919
    x[16]     c4        403
    x[16]     OBJ       -200
    x[17]     c1        956
    x[17]     c2        821
    x[17]     c3        818
    x[17]     c4        34
    x[17]     OBJ       -731
    x[18]     c1        317
    x[18]     c2        708
    x[18]     c3        237
    x[18]     c4        829
    x[18]     OBJ       -704
    x[19]     c1        550
    x[19]     c2        176
    x[19]     c3        43
    x[19]     c4        160
    x[19]     OBJ       -941
    x[20]     c1        442
    x[20]     c2        984
    x[20]     c3        382
    x[20]     c4        461
    x[20]     OBJ       -702
    x[21]     c1        473
    x[21]     c2        935
    x[21]     c3        859
    x[21]     c4        490
    x[21]     OBJ       -955
    x[22]     c1        164
    x[22]     c2        252
    x[22]     c3        617
    x[22]     c4        11
    x[22]     OBJ       -217
    x[23]     c1        462
    x[23]     c2        77
    x[23]     c3        316
    x[23]     c4        820
    x[23]     OBJ       -801
    x[24]     c1        237
    x[24]     c2        315
    x[24]     c3        318
    x[24]     c4        431
    x[24]     OBJ       -872
    x[25]     c1        960
    x[25]     c2        548
    x[25]     c3        35
    x[25]     c4        825
    x[25]     OBJ       -385
    x[26]     c1        644
    x[26]     c2        367
    x[26]     c3        190
    x[26]     c4        685
    x[26]     OBJ       -365
    x[27]     c1        734
    x[27]     c2        174
    x[27]     c3        898
    x[27]     c4        762
    x[27]     OBJ       -990
    x[28]     c1        819
    x[28]     c2        232
    x[28]     c3        867
    x[28]     c4        697
    x[28]     OBJ       -515
    x[29]     c1        718
    x[29]     c2        895
    x[29]     c3        7
    x[29]     c4        724
    x[29]     OBJ       -258
    x[30]     c1        831
    x[30]     c2        695
    x[30]     c3        649
    x[30]     c4        634
    x[30]     OBJ       -964
    x[31]     c1        786
    x[31]     c2        912
    x[31]     c3        50
    x[31]     c4        382
    x[31]     OBJ       -387
    x[32]     c1        852
    x[32]     c2        111
    x[32]     c3        978
    x[32]     c4        886
    x[32]     OBJ       -66
    x[33]     c1        599
    x[33]     c2        740
    x[33]     c3        605
    x[33]     c4        665
    x[33]     OBJ       -598
    x[34]     c1        111
    x[34]     c2        925
    x[34]     c3        178
    x[34]     c4        157
    x[34]     OBJ       -457
    x[35]     c1        671
    x[35]     c2        727
    x[35]     c3        983
    x[35]     c4        783
    x[35]     OBJ       -494
    x[36]     c1        159
    x[36]     c2        178
    x[36]     c3        397
    x[36]     c4        506
    x[36]     OBJ       -304
    x[37]     c1        430
    x[37]     c2        367
    x[37]     c3        628
    x[37]     c4        838
    x[37]     OBJ       -45
    x[38]     c1        453
    x[38]     c2        746
    x[38]     c3        971
    x[38]     c4        68
    x[38]     OBJ       -909
    x[39]     c1        865
    x[39]     c2        805
    x[39]     c3        87
    x[39]     c4        746
    x[39]     OBJ       -326
    x[40]     c1        520
    x[40]     c2        81
    x[40]     c3        989
    x[40]     c4        708
    x[40]     OBJ       -961
    x[41]     c1        887
    x[41]     c2        130
    x[41]     c3        114
    x[41]     c4        462
    x[41]     OBJ       -136
    x[42]     c1        677
    x[42]     c2        292
    x[42]     c3        777
    x[42]     c4        215
    x[42]     OBJ       -385
    x[43]     c1        425
    x[43]     c2        814
    x[43]     c3        506
    x[43]     c4        634
    x[43]     OBJ       -643
    x[44]     c1        892
    x[44]     c2        702
    x[44]     c3        124
    x[44]     c4        326
    x[44]     OBJ       -121
    x[45]     c1        218
    x[45]     c2        62
    x[45]     c3        513
    x[45]     c4        954
    x[45]     OBJ       -822
    x[46]     c1        200
    x[46]     c2        200
    x[46]     c3        727
    x[46]     c4        604
    x[46]     OBJ       -574
    x[47]     c1        535
    x[47]     c2        476
    x[47]     c3        391
    x[47]     c4        595
    x[47]     OBJ       -243
    x[48]     c1        334
    x[48]     c2        754
    x[48]     c3        478
    x[48]     c4        177
    x[48]     OBJ       -699
    x[49]     c1        167
    x[49]     c2        920
    x[49]     c3        246
    x[49]     c4        143
    x[49]     OBJ       -71
    x[50]     c1        992
    x[50]     c2        570
    x[50]     c3        198
    x[50]     c4        705
    x[50]     OBJ       -205
RHS
    rhs       c1        13280
    rhs       c2        12507
    rhs       c3        12154
    rhs       c4        13468
RANGES
BOUNDS
 BV bounds    x[1]
 BV bounds    x[2]
 BV bounds    x[3]
 BV bounds    x[4]
 BV bounds    x[5]
 BV bounds    x[6]
 BV bounds    x[7]
 BV bounds    x[8]
 BV bounds    x[9]
 BV bounds    x[10]
 BV bounds    x[11]
 BV bounds    x[12]
 BV bounds    x[13]
 BV bounds    x[14]
 BV bounds    x[15]
 BV bounds    x[16]
 BV bounds    x[17]
 BV bounds    x[18]
 BV bounds    x[19]
 BV bounds    x[20]
 BV bounds    x[21]
 BV bounds    x[22]
 BV bounds    x[23]
 BV bounds    x[24]
 BV bounds    x[25]
 BV bounds    x[26]
 BV bounds    x[27]
 BV bounds    x[28]
 BV bounds    x[29]
 BV bounds    x[30]
 BV bounds    x[31]
 BV bounds    x[32]
 BV bounds    x[33]
 BV bounds    x[34]
 BV bounds    x[35]
 BV bounds    x[36]
 BV bounds    x[37]
 BV bounds    x[38]
 BV bounds    x[39]
 BV bounds    x[40]
 BV bounds    x[41]
 BV bounds    x[42]
 BV bounds    x[43]
 BV bounds    x[44]
 BV bounds    x[45]
 BV bounds    x[46]
 BV bounds    x[47]
 BV bounds    x[48]
 BV bounds    x[49]
 BV bounds    x[50]
ENDATA
